Route #1: 15 32 89 17 66 16 104 13 46 64 26 72 34 85 112 105 27 110 111 21 82 88 53 78 29 52 50
Route #2: 28 100 57 62 9 114 30 44 75 83 84 63 98 24 102 69 91 41
Route #3: 7 70
Route #4: 2 25 107 92 20 54
Route #5: 74 1 36 23 51
Route #6: 42 59 95 4 101 94 67 39 90 56 31 65 96 22 19 108
Route #7: 11
Route #8: 5 48 93
Route #9: 10 40 43 81
Route #10: 6 60
Route #11: 18 109 3 106 86 33 14
Route #12: 35 99 49 47 79 87 73 45 113 58 77 38 103 61 97 80 55 76 71 37 68 8
Route #13: 12
Cost 25257
